NAME : TSP_INST.20749.tour
COMMENT : Length = 20749
COMMENT : Found by LKH [Keld Helsgaun] Sat Oct 18 14:36:39 2025
TYPE : TOUR
DIMENSION : 100
TOUR_SECTION
1
53
40
12
49
18
29
46
24
32
61
26
7
82
78
9
37
16
51
63
44
66
48
84
11
52
87
96
97
81
45
33
100
74
57
36
14
10
92
19
99
93
4
60
69
3
73
59
41
89
21
23
70
76
91
94
95
50
62
83
72
86
5
43
56
71
38
39
28
88
98
58
34
90
25
17
8
22
75
6
54
2
35
68
30
77
80
65
31
47
67
55
42
20
64
79
13
15
27
85
-1
EOF
